200
150
100
100
100
100
100
100
99
99
98
98
98
97
97
96
96
95
94
93
93
93
92
91
90
90
90
89
89
88
88
88
88
88
87
87
87
87
86
86
85
85
85
84
84
84
84
84
83
83
83
82
81
81
80
80
79
78
77
77
77
77
76
76
75
75
75
75
74
74
74
73
73
73
73
72
71
70
70
70
70
69
68
68
68
68
68
67
67
67
67
66
66
65
65
65
64
63
63
63
63
63
63
62
62
62
60
60
59
59
59
58
57
56
55
55
54
53
53
52
51
50
50
50
50
49
48
48
48
48
48
47
47
47
47
46
46
45
44
44
43
43
43
43
43
43
42
42
41
41
39
39
38
38
37
37
37
36
36
36
35
34
34
34
34
33
33
32
31
31
31
31
30
30
30
30
30
29
28
27
27
26
26
26
25
25
25
25
25
25
24
24
24
23
23
22
21
21
21
20
20
20
